s td 18 3 20
b 1 3 16
b 2 6 16
b 3 4 15
b 4 7 18
b 5 7 17
b 6 4 17
b 7 1 2 10
b 8 2 10 13
b 9 2 8
b 10 4 11 20
b 11 8 11 14
b 12 11 14 20
b 13 14 16 20
b 14 16 20
b 15 5
b 16 9
b 17 12
b 18 19
1 14
1 15
1 16
1 17
1 18
2 14
3 10
4 5
5 6
6 10
7 8
8 9
9 11
10 12
11 12
12 13
13 14
